c "239931.clq"
p edge 246 3680
e 1 17
e 1 19
e 1 20
e 1 21
e 1 22
e 1 24
e 1 25
e 1 26
e 1 28
e 1 32
e 1 33
e 1 35
e 1 37
e 1 38
e 1 41
e 1 43
e 1 46
e 1 48
e 1 49
e 1 60
e 1 63
e 1 66
e 1 77
e 1 84
e 1 85
e 1 87
e 1 91
e 1 92
e 1 94
e 1 95
e 1 98
e 1 100
e 1 104
e 1 106
e 1 110
e 1 137
e 1 138
e 1 139
e 1 149
e 1 155
e 1 166
e 1 191
e 1 197
e 1 198
e 1 205
e 1 218
e 2 17
e 2 18
e 2 20
e 2 21
e 2 23
e 2 24
e 2 31
e 2 38
e 2 40
e 2 42
e 2 45
e 2 46
e 2 50
e 2 53
e 2 61
e 2 63
e 2 72
e 2 78
e 2 82
e 2 86
e 2 91
e 2 96
e 2 102
e 2 109
e 2 111
e 2 112
e 2 113
e 2 133
e 2 134
e 2 140
e 2 142
e 2 145
e 2 148
e 2 162
e 2 188
e 2 199
e 2 202
e 2 213
e 2 214
e 2 224
e 2 229
e 3 17
e 3 18
e 3 19
e 3 23
e 3 24
e 3 30
e 3 33
e 3 41
e 3 44
e 3 49
e 3 55
e 3 61
e 3 68
e 3 76
e 3 80
e 3 84
e 3 120
e 3 163
e 3 168
e 3 187
e 3 191
e 3 192
e 3 195
e 3 206
e 3 229
e 3 235
e 3 240
e 4 17
e 4 18
e 4 19
e 4 20
e 4 21
e 4 22
e 4 23
e 4 25
e 4 26
e 4 27
e 4 29
e 4 30
e 4 32
e 4 36
e 4 39
e 4 48
e 4 56
e 4 57
e 4 65
e 4 80
e 4 81
e 4 85
e 4 92
e 4 93
e 4 113
e 4 120
e 4 122
e 4 141
e 4 159
e 4 167
e 4 169
e 4 172
e 4 179
e 4 186
e 4 193
e 4 195
e 4 196
e 4 212
e 4 228
e 4 244
e 5 17
e 5 18
e 5 19
e 5 20
e 5 21
e 5 22
e 5 23
e 5 25
e 5 26
e 5 27
e 5 29
e 5 31
e 5 32
e 5 33
e 5 34
e 5 36
e 5 39
e 5 40
e 5 44
e 5 47
e 5 48
e 5 50
e 5 57
e 5 60
e 5 63
e 5 64
e 5 67
e 5 68
e 5 69
e 5 71
e 5 76
e 5 80
e 5 81
e 5 83
e 5 85
e 5 88
e 5 91
e 5 93
e 5 96
e 5 98
e 5 103
e 5 104
e 5 113
e 5 115
e 5 116
e 5 123
e 5 129
e 5 134
e 5 139
e 5 149
e 5 150
e 5 152
e 5 153
e 5 157
e 5 164
e 5 165
e 5 166
e 5 177
e 5 187
e 5 188
e 5 189
e 5 195
e 5 200
e 5 201
e 5 209
e 5 215
e 5 216
e 5 229
e 5 237
e 5 245
e 5 246
e 6 17
e 6 18
e 6 20
e 6 25
e 6 29
e 6 30
e 6 36
e 6 156
e 6 193
e 6 233
e 7 17
e 7 18
e 7 19
e 7 20
e 7 21
e 7 22
e 7 23
e 7 24
e 7 26
e 7 27
e 7 28
e 7 29
e 7 30
e 7 31
e 7 33
e 7 35
e 7 39
e 7 40
e 7 43
e 7 44
e 7 45
e 7 46
e 7 47
e 7 52
e 7 53
e 7 58
e 7 61
e 7 63
e 7 69
e 7 73
e 7 78
e 7 83
e 7 86
e 7 89
e 7 98
e 7 99
e 7 102
e 7 116
e 7 117
e 7 118
e 7 122
e 7 126
e 7 131
e 7 139
e 7 142
e 7 150
e 7 151
e 7 153
e 7 154
e 7 157
e 7 160
e 7 163
e 7 175
e 7 183
e 7 186
e 7 189
e 7 190
e 7 206
e 7 223
e 7 224
e 8 17
e 8 18
e 8 19
e 8 21
e 8 22
e 8 25
e 8 27
e 8 34
e 8 36
e 8 41
e 8 42
e 8 43
e 8 44
e 8 50
e 8 52
e 8 54
e 8 57
e 8 61
e 8 62
e 8 70
e 8 71
e 8 84
e 8 85
e 8 89
e 8 90
e 8 92
e 8 105
e 8 106
e 8 111
e 8 113
e 8 121
e 8 132
e 8 136
e 8 142
e 8 145
e 8 148
e 8 149
e 8 151
e 8 153
e 8 170
e 8 179
e 8 189
e 8 228
e 8 232
e 8 238
e 9 17
e 9 18
e 9 19
e 9 25
e 9 28
e 9 30
e 9 31
e 9 36
e 9 38
e 9 49
e 9 51
e 9 53
e 9 77
e 9 87
e 9 96
e 9 106
e 9 122
e 9 135
e 9 143
e 9 184
e 9 230
e 9 241
e 10 17
e 10 18
e 10 19
e 10 20
e 10 21
e 10 22
e 10 24
e 10 25
e 10 28
e 10 31
e 10 32
e 10 37
e 10 43
e 10 47
e 10 52
e 10 55
e 10 60
e 10 75
e 10 102
e 10 118
e 10 125
e 10 132
e 10 159
e 10 190
e 10 200
e 10 223
e 11 17
e 11 18
e 11 19
e 11 20
e 11 21
e 11 22
e 11 24
e 11 26
e 11 27
e 11 28
e 11 29
e 11 30
e 11 33
e 11 34
e 11 36
e 11 38
e 11 39
e 11 40
e 11 42
e 11 47
e 11 48
e 11 55
e 11 57
e 11 76
e 11 77
e 11 84
e 11 85
e 11 111
e 11 141
e 11 144
e 11 152
e 11 154
e 11 169
e 11 192
e 11 196
e 11 199
e 11 207
e 11 208
e 11 226
e 11 235
e 12 17
e 12 18
e 12 19
e 12 20
e 12 21
e 12 22
e 12 23
e 12 25
e 12 26
e 12 33
e 12 40
e 12 49
e 12 52
e 12 59
e 12 61
e 12 68
e 12 72
e 12 87
e 12 92
e 12 95
e 12 109
e 12 112
e 12 117
e 12 132
e 12 139
e 12 145
e 12 158
e 12 159
e 12 171
e 12 191
e 12 193
e 12 239
e 13 17
e 13 18
e 13 19
e 13 20
e 13 21
e 13 22
e 13 23
e 13 24
e 13 25
e 13 26
e 13 27
e 13 28
e 13 30
e 13 31
e 13 32
e 13 33
e 13 35
e 13 36
e 13 39
e 13 40
e 13 44
e 13 45
e 13 55
e 13 60
e 13 64
e 13 65
e 13 68
e 13 70
e 13 71
e 13 79
e 13 80
e 13 85
e 13 87
e 13 88
e 13 101
e 13 103
e 13 104
e 13 106
e 13 115
e 13 132
e 13 133
e 13 147
e 13 151
e 13 170
e 13 199
e 13 201
e 13 202
e 13 209
e 13 213
e 13 223
e 13 225
e 13 230
e 13 235
e 14 17
e 14 18
e 14 19
e 14 20
e 14 23
e 14 24
e 14 26
e 14 28
e 14 29
e 14 32
e 14 35
e 14 47
e 14 50
e 14 66
e 14 73
e 14 78
e 14 80
e 14 86
e 14 88
e 14 90
e 14 98
e 14 101
e 14 105
e 14 109
e 14 140
e 14 158
e 14 171
e 14 172
e 14 187
e 14 188
e 14 199
e 14 224
e 15 17
e 15 18
e 15 19
e 15 20
e 15 21
e 15 22
e 15 23
e 15 24
e 15 32
e 15 33
e 15 34
e 15 37
e 15 40
e 15 43
e 15 47
e 15 49
e 15 51
e 15 52
e 15 54
e 15 57
e 15 73
e 15 74
e 15 83
e 15 85
e 15 112
e 15 121
e 15 123
e 15 125
e 15 133
e 15 135
e 15 161
e 15 163
e 15 204
e 15 225
e 16 17
e 16 18
e 16 19
e 16 20
e 16 21
e 16 22
e 16 23
e 16 24
e 16 25
e 16 26
e 16 27
e 16 29
e 16 30
e 16 32
e 16 33
e 16 36
e 16 37
e 16 38
e 16 39
e 16 40
e 16 41
e 16 42
e 16 45
e 16 48
e 16 50
e 16 51
e 16 52
e 16 55
e 16 58
e 16 61
e 16 63
e 16 64
e 16 68
e 16 73
e 16 74
e 16 78
e 16 87
e 16 88
e 16 90
e 16 91
e 16 93
e 16 95
e 16 97
e 16 99
e 16 103
e 16 110
e 16 114
e 16 115
e 16 117
e 16 119
e 16 124
e 16 133
e 16 138
e 16 143
e 16 149
e 16 150
e 16 156
e 16 160
e 16 163
e 16 164
e 16 165
e 16 169
e 16 170
e 16 172
e 16 174
e 16 181
e 16 217
e 16 222
e 16 226
e 16 227
e 16 245
e 17 18
e 17 19
e 17 20
e 17 21
e 17 22
e 17 23
e 17 24
e 17 26
e 17 27
e 17 28
e 17 30
e 17 31
e 17 33
e 17 34
e 17 35
e 17 36
e 17 38
e 17 39
e 17 40
e 17 43
e 17 48
e 17 50
e 17 55
e 17 57
e 17 61
e 17 63
e 17 67
e 17 69
e 17 74
e 17 75
e 17 77
e 17 82
e 17 86
e 17 88
e 17 97
e 17 104
e 17 105
e 17 111
e 17 113
e 17 115
e 17 118
e 17 125
e 17 126
e 17 127
e 17 130
e 17 134
e 17 143
e 17 146
e 17 155
e 17 176
e 17 178
e 17 193
e 17 194
e 17 198
e 17 212
e 17 220
e 17 222
e 17 223
e 17 224
e 17 233
e 17 237
e 17 243
e 18 19
e 18 20
e 18 21
e 18 22
e 18 23
e 18 24
e 18 25
e 18 26
e 18 27
e 18 28
e 18 29
e 18 30
e 18 31
e 18 32
e 18 33
e 18 35
e 18 37
e 18 38
e 18 41
e 18 42
e 18 43
e 18 46
e 18 47
e 18 48
e 18 50
e 18 53
e 18 58
e 18 59
e 18 60
e 18 62
e 18 63
e 18 64
e 18 67
e 18 70
e 18 72
e 18 74
e 18 75
e 18 76
e 18 78
e 18 80
e 18 82
e 18 87
e 18 88
e 18 91
e 18 95
e 18 98
e 18 102
e 18 109
e 18 111
e 18 112
e 18 113
e 18 117
e 18 125
e 18 127
e 18 128
e 18 131
e 18 134
e 18 135
e 18 136
e 18 137
e 18 141
e 18 142
e 18 143
e 18 147
e 18 155
e 18 159
e 18 162
e 18 166
e 18 170
e 18 174
e 18 176
e 18 186
e 18 187
e 18 196
e 18 200
e 18 201
e 18 206
e 18 211
e 18 231
e 18 235
e 18 238
e 18 239
e 18 244
e 19 20
e 19 21
e 19 22
e 19 23
e 19 24
e 19 25
e 19 26
e 19 27
e 19 28
e 19 29
e 19 30
e 19 31
e 19 32
e 19 34
e 19 35
e 19 36
e 19 37
e 19 38
e 19 39
e 19 40
e 19 42
e 19 44
e 19 47
e 19 48
e 19 50
e 19 53
e 19 54
e 19 55
e 19 56
e 19 57
e 19 61
e 19 63
e 19 64
e 19 65
e 19 73
e 19 76
e 19 88
e 19 94
e 19 96
e 19 100
e 19 105
e 19 112
e 19 117
e 19 118
e 19 129
e 19 133
e 19 134
e 19 143
e 19 153
e 19 156
e 19 163
e 19 165
e 19 168
e 19 171
e 19 175
e 19 185
e 19 191
e 19 194
e 19 196
e 19 197
e 19 205
e 19 206
e 19 207
e 19 209
e 19 211
e 19 212
e 19 217
e 19 221
e 19 231
e 19 234
e 19 238
e 19 239
e 19 241
e 19 244
e 20 21
e 20 22
e 20 23
e 20 24
e 20 25
e 20 26
e 20 27
e 20 28
e 20 29
e 20 30
e 20 31
e 20 32
e 20 34
e 20 41
e 20 44
e 20 45
e 20 47
e 20 50
e 20 55
e 20 56
e 20 58
e 20 59
e 20 60
e 20 61
e 20 64
e 20 67
e 20 69
e 20 71
e 20 74
e 20 77
e 20 81
e 20 85
e 20 89
e 20 93
e 20 107
e 20 114
e 20 124
e 20 126
e 20 131
e 20 141
e 20 142
e 20 143
e 20 144
e 20 150
e 20 152
e 20 154
e 20 157
e 20 161
e 20 167
e 20 172
e 20 184
e 20 198
e 20 203
e 20 207
e 20 208
e 20 211
e 20 215
e 20 216
e 20 221
e 20 225
e 20 230
e 20 236
e 20 244
e 20 246
e 21 22
e 21 23
e 21 27
e 21 28
e 21 29
e 21 30
e 21 31
e 21 33
e 21 34
e 21 35
e 21 37
e 21 41
e 21 42
e 21 43
e 21 44
e 21 46
e 21 48
e 21 49
e 21 51
e 21 53
e 21 54
e 21 58
e 21 66
e 21 67
e 21 68
e 21 71
e 21 72
e 21 73
e 21 74
e 21 78
e 21 79
e 21 83
e 21 87
e 21 90
e 21 93
e 21 94
e 21 96
e 21 99
e 21 102
e 21 103
e 21 104
e 21 107
e 21 111
e 21 112
e 21 113
e 21 115
e 21 117
e 21 119
e 21 120
e 21 123
e 21 127
e 21 131
e 21 132
e 21 133
e 21 135
e 21 140
e 21 148
e 21 153
e 21 157
e 21 159
e 21 161
e 21 168
e 21 172
e 21 175
e 21 176
e 21 177
e 21 181
e 21 182
e 21 183
e 21 184
e 21 188
e 21 192
e 21 193
e 21 197
e 21 200
e 21 204
e 21 211
e 21 214
e 21 224
e 21 230
e 21 234
e 21 242
e 21 245
e 22 23
e 22 24
e 22 25
e 22 26
e 22 27
e 22 28
e 22 29
e 22 30
e 22 31
e 22 35
e 22 36
e 22 42
e 22 44
e 22 46
e 22 49
e 22 51
e 22 53
e 22 55
e 22 56
e 22 58
e 22 61
e 22 64
e 22 65
e 22 77
e 22 78
e 22 79
e 22 80
e 22 81
e 22 86
e 22 88
e 22 90
e 22 93
e 22 96
e 22 97
e 22 98
e 22 106
e 22 111
e 22 116
e 22 117
e 22 119
e 22 123
e 22 126
e 22 131
e 22 138
e 22 142
e 22 143
e 22 144
e 22 150
e 22 153
e 22 155
e 22 156
e 22 163
e 22 164
e 22 182
e 22 188
e 22 189
e 22 194
e 22 198
e 22 203
e 22 205
e 22 207
e 22 211
e 22 214
e 22 222
e 22 224
e 22 239
e 23 24
e 23 25
e 23 27
e 23 29
e 23 31
e 23 32
e 23 34
e 23 37
e 23 40
e 23 42
e 23 44
e 23 45
e 23 46
e 23 47
e 23 48
e 23 50
e 23 51
e 23 53
e 23 59
e 23 63
e 23 65
e 23 66
e 23 71
e 23 78
e 23 79
e 23 83
e 23 84
e 23 86
e 23 87
e 23 89
e 23 93
e 23 97
e 23 104
e 23 105
e 23 106
e 23 107
e 23 109
e 23 110
e 23 113
e 23 119
e 23 122
e 23 128
e 23 136
e 23 144
e 23 145
e 23 149
e 23 151
e 23 158
e 23 162
e 23 174
e 23 178
e 23 179
e 23 182
e 23 187
e 23 190
e 23 191
e 23 198
e 23 210
e 23 213
e 23 214
e 23 215
e 23 224
e 23 225
e 23 235
e 23 240
e 23 246
e 24 25
e 24 26
e 24 27
e 24 28
e 24 29
e 24 30
e 24 32
e 24 34
e 24 35
e 24 37
e 24 38
e 24 39
e 24 40
e 24 41
e 24 43
e 24 44
e 24 45
e 24 46
e 24 47
e 24 50
e 24 52
e 24 54
e 24 55
e 24 58
e 24 59
e 24 64
e 24 68
e 24 75
e 24 89
e 24 90
e 24 92
e 24 94
e 24 96
e 24 97
e 24 109
e 24 110
e 24 121
e 24 122
e 24 123
e 24 124
e 24 125
e 24 129
e 24 131
e 24 133
e 24 145
e 24 147
e 24 148
e 24 152
e 24 163
e 24 168
e 24 178
e 24 185
e 24 200
e 24 201
e 24 206
e 24 210
e 24 213
e 24 215
e 24 216
e 24 222
e 24 227
e 24 236
e 24 244
e 24 245
e 24 246
e 25 26
e 25 28
e 25 32
e 25 33
e 25 40
e 25 41
e 25 47
e 25 48
e 25 49
e 25 51
e 25 55
e 25 65
e 25 71
e 25 75
e 25 83
e 25 84
e 25 91
e 25 105
e 25 106
e 25 112
e 25 116
e 25 126
e 25 138
e 25 161
e 25 193
e 25 196
e 25 204
e 25 208
e 25 214
e 25 221
e 25 238
e 25 239
e 25 243
e 25 244
e 25 246
e 26 27
e 26 28
e 26 29
e 26 31
e 26 33
e 26 34
e 26 36
e 26 38
e 26 42
e 26 48
e 26 49
e 26 54
e 26 55
e 26 56
e 26 58
e 26 59
e 26 65
e 26 67
e 26 69
e 26 72
e 26 74
e 26 76
e 26 77
e 26 78
e 26 80
e 26 91
e 26 92
e 26 94
e 26 97
e 26 99
e 26 104
e 26 106
e 26 108
e 26 110
e 26 111
e 26 114
e 26 130
e 26 134
e 26 137
e 26 138
e 26 140
e 26 147
e 26 151
e 26 153
e 26 156
e 26 167
e 26 180
e 26 184
e 26 185
e 26 189
e 26 192
e 26 193
e 26 195
e 26 205
e 26 210
e 26 211
e 26 212
e 26 213
e 26 220
e 26 223
e 26 232
e 26 233
e 26 234
e 26 236
e 26 242
e 27 29
e 27 30
e 27 32
e 27 33
e 27 34
e 27 35
e 27 37
e 27 39
e 27 42
e 27 46
e 27 53
e 27 54
e 27 56
e 27 59
e 27 60
e 27 62
e 27 67
e 27 76
e 27 77
e 27 81
e 27 85
e 27 86
e 27 91
e 27 93
e 27 94
e 27 98
e 27 99
e 27 101
e 27 102
e 27 109
e 27 120
e 27 123
e 27 127
e 27 130
e 27 143
e 27 145
e 27 146
e 27 154
e 27 159
e 27 169
e 27 170
e 27 179
e 27 181
e 27 182
e 27 186
e 27 191
e 27 195
e 27 200
e 27 204
e 27 207
e 27 213
e 27 221
e 27 241
e 28 34
e 28 35
e 28 38
e 28 41
e 28 50
e 28 55
e 28 62
e 28 66
e 28 68
e 28 70
e 28 72
e 28 74
e 28 75
e 28 82
e 28 84
e 28 94
e 28 96
e 28 100
e 28 107
e 28 112
e 28 118
e 28 125
e 28 130
e 28 136
e 28 139
e 28 143
e 28 148
e 28 149
e 28 152
e 28 160
e 28 162
e 28 164
e 28 165
e 28 176
e 28 187
e 28 191
e 28 213
e 28 224
e 28 228
e 28 229
e 28 230
e 28 234
e 28 238
e 28 243
e 29 31
e 29 34
e 29 35
e 29 37
e 29 39
e 29 42
e 29 43
e 29 44
e 29 47
e 29 51
e 29 52
e 29 56
e 29 58
e 29 69
e 29 79
e 29 82
e 29 83
e 29 88
e 29 89
e 29 90
e 29 94
e 29 95
e 29 101
e 29 102
e 29 103
e 29 107
e 29 111
e 29 114
e 29 116
e 29 122
e 29 126
e 29 128
e 29 132
e 29 134
e 29 136
e 29 150
e 29 159
e 29 165
e 29 168
e 29 171
e 29 182
e 29 184
e 29 188
e 29 198
e 29 210
e 29 215
e 29 225
e 29 243
e 29 245
e 30 31
e 30 34
e 30 37
e 30 41
e 30 45
e 30 46
e 30 52
e 30 53
e 30 55
e 30 56
e 30 57
e 30 58
e 30 69
e 30 70
e 30 72
e 30 77
e 30 84
e 30 88
e 30 93
e 30 94
e 30 95
e 30 129
e 30 131
e 30 139
e 30 141
e 30 158
e 30 177
e 30 180
e 30 191
e 30 194
e 30 196
e 30 197
e 30 198
e 30 201
e 30 202
e 30 203
e 30 213
e 30 219
e 30 220
e 30 223
e 31 32
e 31 36
e 31 39
e 31 41
e 31 44
e 31 45
e 31 46
e 31 48
e 31 50
e 31 51
e 31 52
e 31 54
e 31 60
e 31 77
e 31 82
e 31 84
e 31 94
e 31 96
e 31 98
e 31 133
e 31 139
e 31 154
e 31 179
e 31 191
e 31 201
e 31 203
e 31 215
e 31 245
e 32 33
e 32 35
e 32 36
e 32 37
e 32 38
e 32 39
e 32 40
e 32 45
e 32 47
e 32 49
e 32 51
e 32 52
e 32 56
e 32 60
e 32 61
e 32 65
e 32 68
e 32 72
e 32 73
e 32 77
e 32 79
e 32 80
e 32 89
e 32 99
e 32 100
e 32 101
e 32 103
e 32 104
e 32 105
e 32 111
e 32 123
e 32 127
e 32 138
e 32 147
e 32 160
e 32 167
e 32 168
e 32 171
e 32 173
e 32 175
e 32 179
e 32 180
e 32 197
e 32 204
e 32 205
e 32 207
e 32 210
e 32 215
e 32 217
e 32 219
e 32 224
e 33 34
e 33 35
e 33 38
e 33 41
e 33 42
e 33 45
e 33 46
e 33 49
e 33 51
e 33 52
e 33 54
e 33 57
e 33 62
e 33 64
e 33 66
e 33 67
e 33 70
e 33 75
e 33 77
e 33 78
e 33 79
e 33 81
e 33 87
e 33 100
e 33 101
e 33 103
e 33 110
e 33 119
e 33 126
e 33 131
e 33 146
e 33 150
e 33 166
e 33 167
e 33 168
e 33 175
e 33 182
e 33 194
e 33 202
e 33 209
e 33 212
e 33 218
e 33 221
e 33 222
e 33 226
e 33 233
e 33 243
e 33 246
e 34 35
e 34 36
e 34 37
e 34 38
e 34 43
e 34 46
e 34 50
e 34 51
e 34 56
e 34 59
e 34 62
e 34 65
e 34 66
e 34 70
e 34 74
e 34 89
e 34 94
e 34 96
e 34 97
e 34 109
e 34 114
e 34 126
e 34 130
e 34 136
e 34 142
e 34 147
e 34 175
e 34 176
e 34 178
e 34 183
e 34 187
e 34 199
e 34 202
e 34 212
e 34 214
e 34 223
e 34 242
e 35 36
e 35 37
e 35 38
e 35 39
e 35 49
e 35 50
e 35 52
e 35 53
e 35 58
e 35 60
e 35 64
e 35 65
e 35 67
e 35 69
e 35 79
e 35 83
e 35 84
e 35 90
e 35 94
e 35 107
e 35 115
e 35 118
e 35 121
e 35 126
e 35 127
e 35 128
e 35 131
e 35 137
e 35 138
e 35 149
e 35 150
e 35 155
e 35 160
e 35 183
e 35 189
e 35 197
e 35 207
e 35 219
e 35 221
e 35 225
e 35 229
e 35 233
e 35 238
e 35 241
e 35 242
e 36 37
e 36 38
e 36 39
e 36 40
e 36 41
e 36 42
e 36 44
e 36 45
e 36 47
e 36 53
e 36 54
e 36 59
e 36 60
e 36 62
e 36 63
e 36 65
e 36 70
e 36 73
e 36 77
e 36 78
e 36 79
e 36 80
e 36 82
e 36 85
e 36 89
e 36 91
e 36 95
e 36 96
e 36 98
e 36 99
e 36 108
e 36 113
e 36 114
e 36 131
e 36 142
e 36 152
e 36 153
e 36 157
e 36 160
e 36 162
e 36 163
e 36 179
e 36 192
e 36 194
e 36 196
e 36 200
e 36 201
e 36 216
e 36 218
e 36 219
e 36 231
e 36 241
e 37 39
e 37 41
e 37 42
e 37 43
e 37 45
e 37 46
e 37 51
e 37 53
e 37 54
e 37 55
e 37 62
e 37 63
e 37 70
e 37 71
e 37 72
e 37 81
e 37 86
e 37 95
e 37 97
e 37 101
e 37 102
e 37 108
e 37 119
e 37 123
e 37 124
e 37 126
e 37 127
e 37 129
e 37 131
e 37 139
e 37 140
e 37 153
e 37 156
e 37 158
e 37 159
e 37 167
e 37 185
e 37 194
e 37 213
e 37 238
e 37 240
e 37 245
e 38 43
e 38 47
e 38 48
e 38 49
e 38 56
e 38 57
e 38 59
e 38 60
e 38 73
e 38 75
e 38 81
e 38 95
e 38 104
e 38 107
e 38 108
e 38 110
e 38 116
e 38 138
e 38 149
e 38 155
e 38 158
e 38 159
e 38 160
e 38 161
e 38 170
e 38 176
e 38 184
e 38 188
e 38 218
e 38 230
e 38 231
e 38 236
e 38 239
e 39 40
e 39 41
e 39 42
e 39 43
e 39 49
e 39 56
e 39 58
e 39 60
e 39 62
e 39 69
e 39 76
e 39 82
e 39 84
e 39 86
e 39 96
e 39 99
e 39 104
e 39 106
e 39 109
e 39 114
e 39 124
e 39 128
e 39 130
e 39 138
e 39 144
e 39 146
e 39 150
e 39 157
e 39 165
e 39 167
e 39 168
e 39 172
e 39 179
e 39 183
e 39 190
e 39 204
e 39 209
e 39 231
e 39 236
e 39 240
e 40 43
e 40 44
e 40 45
e 40 62
e 40 63
e 40 65
e 40 71
e 40 72
e 40 76
e 40 87
e 40 105
e 40 109
e 40 116
e 40 158
e 40 165
e 40 166
e 40 168
e 40 190
e 40 194
e 40 199
e 40 208
e 40 217
e 40 219
e 40 220
e 40 232
e 40 233
e 40 239
e 40 244
e 41 49
e 41 52
e 41 53
e 41 54
e 41 56
e 41 57
e 41 58
e 41 64
e 41 65
e 41 69
e 41 74
e 41 78
e 41 85
e 41 86
e 41 99
e 41 104
e 41 105
e 41 109
e 41 113
e 41 114
e 41 117
e 41 119
e 41 121
e 41 124
e 41 125
e 41 128
e 41 143
e 41 150
e 41 151
e 41 157
e 41 158
e 41 169
e 41 173
e 41 176
e 41 187
e 41 190
e 41 196
e 41 198
e 41 209
e 41 212
e 41 237
e 41 242
e 42 43
e 42 44
e 42 45
e 42 50
e 42 51
e 42 53
e 42 55
e 42 59
e 42 60
e 42 62
e 42 71
e 42 72
e 42 76
e 42 80
e 42 81
e 42 83
e 42 85
e 42 87
e 42 88
e 42 89
e 42 90
e 42 92
e 42 98
e 42 99
e 42 100
e 42 104
e 42 110
e 42 111
e 42 112
e 42 115
e 42 120
e 42 123
e 42 126
e 42 130
e 42 131
e 42 132
e 42 135
e 42 140
e 42 141
e 42 144
e 42 151
e 42 153
e 42 155
e 42 160
e 42 171
e 42 174
e 42 205
e 42 208
e 42 212
e 42 215
e 42 217
e 42 221
e 42 224
e 42 225
e 42 229
e 42 244
e 43 46
e 43 49
e 43 52
e 43 58
e 43 68
e 43 69
e 43 72
e 43 89
e 43 90
e 43 98
e 43 119
e 43 120
e 43 123
e 43 136
e 43 138
e 43 140
e 43 155
e 43 161
e 43 174
e 43 178
e 43 186
e 43 193
e 43 207
e 43 241
e 43 246
e 44 45
e 44 48
e 44 53
e 44 59
e 44 65
e 44 67
e 44 68
e 44 70
e 44 76
e 44 82
e 44 88
e 44 95
e 44 100
e 44 101
e 44 116
e 44 117
e 44 118
e 44 121
e 44 132
e 44 136
e 44 140
e 44 157
e 44 161
e 44 162
e 44 184
e 44 193
e 44 200
e 44 208
e 44 218
e 44 220
e 44 226
e 44 234
e 44 235
e 44 243
e 45 46
e 45 61
e 45 62
e 45 64
e 45 67
e 45 69
e 45 74
e 45 78
e 45 80
e 45 87
e 45 102
e 45 105
e 45 113
e 45 120
e 45 121
e 45 123
e 45 126
e 45 128
e 45 145
e 45 159
e 45 163
e 45 169
e 45 194
e 45 199
e 45 206
e 45 208
e 45 213
e 45 236
e 45 237
e 45 241
e 45 242
e 46 54
e 46 56
e 46 59
e 46 61
e 46 65
e 46 66
e 46 67
e 46 104
e 46 119
e 46 131
e 46 135
e 46 137
e 46 140
e 46 150
e 46 157
e 46 159
e 46 188
e 46 192
e 46 218
e 46 227
e 46 232
e 46 242
e 47 48
e 47 51
e 47 52
e 47 54
e 47 56
e 47 61
e 47 62
e 47 63
e 47 64
e 47 66
e 47 68
e 47 73
e 47 75
e 47 79
e 47 83
e 47 87
e 47 96
e 47 101
e 47 104
e 47 108
e 47 114
e 47 116
e 47 120
e 47 152
e 47 156
e 47 161
e 47 171
e 47 187
e 47 191
e 47 197
e 47 202
e 47 208
e 47 210
e 47 223
e 47 231
e 47 232
e 47 233
e 48 57
e 48 60
e 48 64
e 48 66
e 48 69
e 48 71
e 48 75
e 48 76
e 48 82
e 48 84
e 48 86
e 48 102
e 48 105
e 48 107
e 48 117
e 48 129
e 48 144
e 48 168
e 48 173
e 48 178
e 48 197
e 48 205
e 48 208
e 48 212
e 48 215
e 48 216
e 48 218
e 48 220
e 48 237
e 49 51
e 49 54
e 49 62
e 49 63
e 49 74
e 49 80
e 49 91
e 49 95
e 49 99
e 49 100
e 49 115
e 49 119
e 49 124
e 49 130
e 49 137
e 49 142
e 49 146
e 49 148
e 49 153
e 49 154
e 49 176
e 49 177
e 49 201
e 49 203
e 49 206
e 49 208
e 49 211
e 49 239
e 50 57
e 50 58
e 50 65
e 50 67
e 50 68
e 50 73
e 50 80
e 50 94
e 50 100
e 50 102
e 50 116
e 50 117
e 50 118
e 50 121
e 50 122
e 50 127
e 50 128
e 50 133
e 50 138
e 50 143
e 50 145
e 50 146
e 50 147
e 50 148
e 50 153
e 50 177
e 50 180
e 50 191
e 50 196
e 50 205
e 50 213
e 50 219
e 50 221
e 50 244
e 51 54
e 51 57
e 51 59
e 51 75
e 51 77
e 51 81
e 51 85
e 51 97
e 51 104
e 51 110
e 51 114
e 51 120
e 51 125
e 51 127
e 51 144
e 51 162
e 51 165
e 51 171
e 51 173
e 51 198
e 51 212
e 51 218
e 51 228
e 51 241
e 51 243
e 52 57
e 52 69
e 52 77
e 52 81
e 52 86
e 52 93
e 52 97
e 52 98
e 52 100
e 52 108
e 52 109
e 52 130
e 52 136
e 52 140
e 52 142
e 52 149
e 52 164
e 52 168
e 52 170
e 52 176
e 52 189
e 52 190
e 52 191
e 52 195
e 52 196
e 52 199
e 52 220
e 52 230
e 52 240
e 53 63
e 53 66
e 53 71
e 53 72
e 53 77
e 53 78
e 53 81
e 53 86
e 53 88
e 53 90
e 53 91
e 53 92
e 53 93
e 53 99
e 53 129
e 53 136
e 53 142
e 53 144
e 53 156
e 53 170
e 53 174
e 53 184
e 53 186
e 53 189
e 53 196
e 53 203
e 53 204
e 53 225
e 53 242
e 54 56
e 54 57
e 54 75
e 54 92
e 54 107
e 54 110
e 54 134
e 54 136
e 54 146
e 54 148
e 54 155
e 54 156
e 54 161
e 54 166
e 54 177
e 54 201
e 54 204
e 54 209
e 54 225
e 54 228
e 54 232
e 55 59
e 55 61
e 55 67
e 55 70
e 55 74
e 55 76
e 55 82
e 55 93
e 55 111
e 55 122
e 55 132
e 55 141
e 55 154
e 55 168
e 55 178
e 55 181
e 55 209
e 55 222
e 55 228
e 55 229
e 56 60
e 56 64
e 56 66
e 56 72
e 56 73
e 56 75
e 56 120
e 56 128
e 56 130
e 56 158
e 56 166
e 56 177
e 56 186
e 57 58
e 57 59
e 57 61
e 57 62
e 57 63
e 57 70
e 57 71
e 57 73
e 57 85
e 57 86
e 57 89
e 57 91
e 57 94
e 57 107
e 57 121
e 57 125
e 57 139
e 57 141
e 57 149
e 57 153
e 57 155
e 57 156
e 57 163
e 57 165
e 57 167
e 57 175
e 57 178
e 57 199
e 57 202
e 57 209
e 57 211
e 58 62
e 58 69
e 58 91
e 58 100
e 58 101
e 58 106
e 58 107
e 58 112
e 58 120
e 58 138
e 58 159
e 58 183
e 58 185
e 58 198
e 58 202
e 58 211
e 58 221
e 59 70
e 59 73
e 59 79
e 59 86
e 59 95
e 59 99
e 59 108
e 59 111
e 59 116
e 59 120
e 59 127
e 59 135
e 59 154
e 59 159
e 59 167
e 59 172
e 59 183
e 59 187
e 59 188
e 59 237
e 59 241
e 60 69
e 60 75
e 60 76
e 60 86
e 60 97
e 60 113
e 60 115
e 60 116
e 60 127
e 60 146
e 60 156
e 60 167
e 60 199
e 60 210
e 60 218
e 60 221
e 60 226
e 61 66
e 61 70
e 61 72
e 61 83
e 61 89
e 61 92
e 61 101
e 61 102
e 61 108
e 61 117
e 61 118
e 61 122
e 61 130
e 61 145
e 61 147
e 61 148
e 61 149
e 61 151
e 61 155
e 61 164
e 61 165
e 61 172
e 61 176
e 61 214
e 61 230
e 61 232
e 62 66
e 62 67
e 62 68
e 62 71
e 62 74
e 62 83
e 62 89
e 62 99
e 62 106
e 62 111
e 62 131
e 62 132
e 62 135
e 62 146
e 62 183
e 62 199
e 62 227
e 62 228
e 63 64
e 63 67
e 63 68
e 63 76
e 63 78
e 63 79
e 63 91
e 63 95
e 63 96
e 63 97
e 63 105
e 63 112
e 63 115
e 63 125
e 63 129
e 63 131
e 63 140
e 63 148
e 63 149
e 63 168
e 63 174
e 63 181
e 63 202
e 63 218
e 63 227
e 63 232
e 63 241
e 63 246
e 64 66
e 64 70
e 64 72
e 64 79
e 64 82
e 64 89
e 64 90
e 64 97
e 64 105
e 64 110
e 64 115
e 64 128
e 64 133
e 64 136
e 64 139
e 64 141
e 64 151
e 64 167
e 64 171
e 64 182
e 64 193
e 64 194
e 64 197
e 64 202
e 64 218
e 64 221
e 64 240
e 65 66
e 65 68
e 65 75
e 65 79
e 65 87
e 65 88
e 65 100
e 65 102
e 65 115
e 65 119
e 65 128
e 65 129
e 65 134
e 65 151
e 65 173
e 65 177
e 65 180
e 65 182
e 65 192
e 66 71
e 66 76
e 66 92
e 66 94
e 66 97
e 66 101
e 66 102
e 66 110
e 66 114
e 66 120
e 66 121
e 66 122
e 66 123
e 66 129
e 66 145
e 66 158
e 66 159
e 66 161
e 66 167
e 66 172
e 66 180
e 66 182
e 66 193
e 66 194
e 66 195
e 66 206
e 66 215
e 66 216
e 66 225
e 67 70
e 67 82
e 67 83
e 67 88
e 67 96
e 67 107
e 67 125
e 67 132
e 67 146
e 67 152
e 67 157
e 67 173
e 67 178
e 67 184
e 67 215
e 67 231
e 68 73
e 68 82
e 68 90
e 68 100
e 68 113
e 68 116
e 68 119
e 68 122
e 68 130
e 68 142
e 68 148
e 68 157
e 68 166
e 68 173
e 68 175
e 68 177
e 68 180
e 68 181
e 68 211
e 68 222
e 68 225
e 68 230
e 69 79
e 69 81
e 69 84
e 69 85
e 69 93
e 69 100
e 69 103
e 69 106
e 69 112
e 69 115
e 69 124
e 69 162
e 69 182
e 69 190
e 69 193
e 69 221
e 69 230
e 70 71
e 70 74
e 70 81
e 70 83
e 70 88
e 70 91
e 70 98
e 70 103
e 70 107
e 70 115
e 70 116
e 70 124
e 70 129
e 70 141
e 70 165
e 70 166
e 70 183
e 70 193
e 70 197
e 70 232
e 70 234
e 70 236
e 70 244
e 71 73
e 71 74
e 71 75
e 71 80
e 71 97
e 71 103
e 71 109
e 71 126
e 71 141
e 71 160
e 71 194
e 71 201
e 71 235
e 71 238
e 71 246
e 72 79
e 72 81
e 72 95
e 72 98
e 72 110
e 72 123
e 72 128
e 72 129
e 72 133
e 72 138
e 72 143
e 72 147
e 72 158
e 72 212
e 72 238
e 73 87
e 73 93
e 73 110
e 73 114
e 73 117
e 73 118
e 73 120
e 73 122
e 73 152
e 73 169
e 73 201
e 73 210
e 73 216
e 73 224
e 73 240
e 73 243
e 74 80
e 74 84
e 74 117
e 74 120
e 74 121
e 74 135
e 74 142
e 74 147
e 74 152
e 74 155
e 74 179
e 74 181
e 74 185
e 74 186
e 74 192
e 74 201
e 74 202
e 74 237
e 75 84
e 75 90
e 75 91
e 75 108
e 75 114
e 75 121
e 75 147
e 75 150
e 75 154
e 75 160
e 75 173
e 75 181
e 75 184
e 75 187
e 75 189
e 75 199
e 75 216
e 75 228
e 76 78
e 76 81
e 76 82
e 76 83
e 76 92
e 76 93
e 76 97
e 76 98
e 76 101
e 76 110
e 76 122
e 76 123
e 76 128
e 76 149
e 76 159
e 76 160
e 76 177
e 76 180
e 76 186
e 76 190
e 76 217
e 76 222
e 76 235
e 76 245
e 77 87
e 77 89
e 77 93
e 77 112
e 77 155
e 77 164
e 77 172
e 77 195
e 77 229
e 77 230
e 77 242
e 78 95
e 78 96
e 78 99
e 78 101
e 78 103
e 78 114
e 78 116
e 78 126
e 78 145
e 78 154
e 78 155
e 78 173
e 78 184
e 78 232
e 79 82
e 79 85
e 79 90
e 79 92
e 79 105
e 79 106
e 79 117
e 79 118
e 79 120
e 79 127
e 79 142
e 79 148
e 79 153
e 79 156
e 79 185
e 79 189
e 79 200
e 79 203
e 79 204
e 79 209
e 79 238
e 79 242
e 80 90
e 80 92
e 80 95
e 80 111
e 80 114
e 80 115
e 80 121
e 80 133
e 80 137
e 80 149
e 80 151
e 80 164
e 80 168
e 80 197
e 80 219
e 80 226
e 80 245
e 81 83
e 81 105
e 81 108
e 81 112
e 81 119
e 81 121
e 81 141
e 81 155
e 81 169
e 81 174
e 81 187
e 81 210
e 81 217
e 82 92
e 82 99
e 82 109
e 82 125
e 82 128
e 82 134
e 82 137
e 82 178
e 82 184
e 82 210
e 82 239
e 83 84
e 83 103
e 83 126
e 83 129
e 83 151
e 83 161
e 83 173
e 83 182
e 83 183
e 83 186
e 83 192
e 83 195
e 83 207
e 83 208
e 83 221
e 83 223
e 83 237
e 84 94
e 84 100
e 84 104
e 84 118
e 84 125
e 84 130
e 84 135
e 84 137
e 84 138
e 84 144
e 84 175
e 84 180
e 84 181
e 84 183
e 84 184
e 84 194
e 84 218
e 84 243
e 85 101
e 85 102
e 85 106
e 85 108
e 85 112
e 85 113
e 85 123
e 85 127
e 85 132
e 85 136
e 85 139
e 85 140
e 85 147
e 85 160
e 85 193
e 85 202
e 85 203
e 85 210
e 85 214
e 85 219
e 85 237
e 85 238
e 85 240
e 85 241
e 85 242
e 86 142
e 86 160
e 86 166
e 86 167
e 86 187
e 86 199
e 86 216
e 86 225
e 86 236
e 86 237
e 87 92
e 87 102
e 87 108
e 87 153
e 87 196
e 87 206
e 87 211
e 87 218
e 87 220
e 87 231
e 87 241
e 88 101
e 88 134
e 88 151
e 88 158
e 88 164
e 88 196
e 88 223
e 88 246
e 89 122
e 89 130
e 89 174
e 89 177
e 89 180
e 89 191
e 89 193
e 89 217
e 89 227
e 90 105
e 90 111
e 90 124
e 90 134
e 90 152
e 90 158
e 90 168
e 90 189
e 90 203
e 90 222
e 90 233
e 90 240
e 91 98
e 91 144
e 91 154
e 91 175
e 91 177
e 91 198
e 91 208
e 91 232
e 92 100
e 92 109
e 92 121
e 92 158
e 92 170
e 92 177
e 92 184
e 92 185
e 92 204
e 92 236
e 93 103
e 93 110
e 93 124
e 93 127
e 93 128
e 93 140
e 93 141
e 93 147
e 93 192
e 93 220
e 93 227
e 94 103
e 94 121
e 94 125
e 94 146
e 94 166
e 94 179
e 94 229
e 94 243
e 95 108
e 95 127
e 95 136
e 95 137
e 95 139
e 95 141
e 95 173
e 95 203
e 95 205
e 95 230
e 95 234
e 95 235
e 95 239
e 95 246
e 96 103
e 96 106
e 96 107
e 96 122
e 96 124
e 96 151
e 96 173
e 96 182
e 96 185
e 96 207
e 96 218
e 96 222
e 96 229
e 96 236
e 97 106
e 97 107
e 97 133
e 97 135
e 97 139
e 97 148
e 97 151
e 97 156
e 97 159
e 97 160
e 97 175
e 97 183
e 97 186
e 97 200
e 97 202
e 97 226
e 97 231
e 98 112
e 98 132
e 98 164
e 98 171
e 98 204
e 98 216
e 99 113
e 99 141
e 99 154
e 99 167
e 99 185
e 99 197
e 99 203
e 99 237
e 100 108
e 100 135
e 100 156
e 100 164
e 101 154
e 101 161
e 101 162
e 101 190
e 101 202
e 101 206
e 101 238
e 102 103
e 102 148
e 102 167
e 102 201
e 102 234
e 103 113
e 103 116
e 103 143
e 103 170
e 103 174
e 103 207
e 103 219
e 104 118
e 104 128
e 104 170
e 104 190
e 104 225
e 104 235
e 104 246
e 105 107
e 105 108
e 105 118
e 105 175
e 105 217
e 105 226
e 106 108
e 106 109
e 106 124
e 106 152
e 106 169
e 106 179
e 106 200
e 106 217
e 107 119
e 107 129
e 107 134
e 107 150
e 107 160
e 107 163
e 107 171
e 108 126
e 108 135
e 108 137
e 108 138
e 108 146
e 108 150
e 108 164
e 109 130
e 109 140
e 109 147
e 109 148
e 109 149
e 109 166
e 109 174
e 109 179
e 109 190
e 110 139
e 110 176
e 110 208
e 110 245
e 111 115
e 111 117
e 111 119
e 111 133
e 111 141
e 111 145
e 111 161
e 111 165
e 111 172
e 111 177
e 111 181
e 111 183
e 111 186
e 111 197
e 111 204
e 111 205
e 111 207
e 111 225
e 112 118
e 112 132
e 112 136
e 112 147
e 112 150
e 112 162
e 112 165
e 112 169
e 112 183
e 112 192
e 112 220
e 112 225
e 112 232
e 112 241
e 113 114
e 113 131
e 113 140
e 113 148
e 113 162
e 113 171
e 113 178
e 113 184
e 113 187
e 113 188
e 113 190
e 113 207
e 113 214
e 113 221
e 113 231
e 113 233
e 113 237
e 114 119
e 114 154
e 114 195
e 114 234
e 114 235
e 115 118
e 115 122
e 115 124
e 115 137
e 115 174
e 115 180
e 115 181
e 115 193
e 115 244
e 116 174
e 116 186
e 116 231
e 117 124
e 117 125
e 117 165
e 117 166
e 117 174
e 117 176
e 117 185
e 117 189
e 117 190
e 117 191
e 117 192
e 117 197
e 117 204
e 117 232
e 117 237
e 118 124
e 118 125
e 118 129
e 118 134
e 118 154
e 118 156
e 118 162
e 118 169
e 118 207
e 118 216
e 118 242
e 119 129
e 119 135
e 119 162
e 119 164
e 119 178
e 119 211
e 119 218
e 120 123
e 120 143
e 120 150
e 120 152
e 120 175
e 120 176
e 120 198
e 120 216
e 120 228
e 120 234
e 121 133
e 121 136
e 121 144
e 121 145
e 121 179
e 121 203
e 121 215
e 121 219
e 121 232
e 122 133
e 122 134
e 122 137
e 122 166
e 122 171
e 122 181
e 122 184
e 122 197
e 122 209
e 122 212
e 122 226
e 122 228
e 122 229
e 122 234
e 123 137
e 123 144
e 123 186
e 123 200
e 123 241
e 124 127
e 124 170
e 124 192
e 124 198
e 124 199
e 124 214
e 124 246
e 125 134
e 125 174
e 125 189
e 125 204
e 125 205
e 125 214
e 125 230
e 125 234
e 125 237
e 126 130
e 126 132
e 126 140
e 126 146
e 126 164
e 126 165
e 126 166
e 126 169
e 126 178
e 126 217
e 126 224
e 126 246
e 127 139
e 127 146
e 127 169
e 127 188
e 127 202
e 127 210
e 127 222
e 127 235
e 128 138
e 128 139
e 128 143
e 128 144
e 128 161
e 128 173
e 128 188
e 128 189
e 128 233
e 128 243
e 129 137
e 129 145
e 129 158
e 129 174
e 129 228
e 129 229
e 130 182
e 130 188
e 130 195
e 130 231
e 130 234
e 131 132
e 131 146
e 131 147
e 131 161
e 131 166
e 131 171
e 131 209
e 131 211
e 131 213
e 131 231
e 131 240
e 131 242
e 132 135
e 132 145
e 132 146
e 132 156
e 132 180
e 132 190
e 132 198
e 132 209
e 133 135
e 133 168
e 133 189
e 133 216
e 133 222
e 134 182
e 134 228
e 135 137
e 135 149
e 135 152
e 135 176
e 136 144
e 136 157
e 136 164
e 136 172
e 136 181
e 136 208
e 136 220
e 137 145
e 137 151
e 137 157
e 137 170
e 137 178
e 137 186
e 137 194
e 137 195
e 137 227
e 137 229
e 137 238
e 138 143
e 138 160
e 138 163
e 138 171
e 138 179
e 138 180
e 138 195
e 138 206
e 138 210
e 138 222
e 139 144
e 139 161
e 139 170
e 139 207
e 140 142
e 140 158
e 140 187
e 140 188
e 140 196
e 140 216
e 140 218
e 140 219
e 141 171
e 141 188
e 141 202
e 141 242
e 142 154
e 142 155
e 142 162
e 142 180
e 142 181
e 142 195
e 142 219
e 142 220
e 142 226
e 142 227
e 142 235
e 143 153
e 143 157
e 143 163
e 143 175
e 143 181
e 143 198
e 143 227
e 143 228
e 144 169
e 144 172
e 144 178
e 144 185
e 144 201
e 144 203
e 144 239
e 145 163
e 145 170
e 145 203
e 145 235
e 146 152
e 146 163
e 146 219
e 146 234
e 146 237
e 147 162
e 147 172
e 147 204
e 147 225
e 147 226
e 148 164
e 148 206
e 148 213
e 148 217
e 148 227
e 148 229
e 148 236
e 149 152
e 149 176
e 149 177
e 149 179
e 149 180
e 149 206
e 149 211
e 149 212
e 149 227
e 149 236
e 150 157
e 150 175
e 150 192
e 150 200
e 151 195
e 152 172
e 152 182
e 152 233
e 153 198
e 153 207
e 153 243
e 154 200
e 154 220
e 154 245
e 155 157
e 155 162
e 155 163
e 155 167
e 155 172
e 155 239
e 155 240
e 156 170
e 156 185
e 157 169
e 158 175
e 158 179
e 158 189
e 158 205
e 158 211
e 158 214
e 158 216
e 158 233
e 159 232
e 159 238
e 160 183
e 160 186
e 160 206
e 160 222
e 160 235
e 160 238
e 161 239
e 162 176
e 162 185
e 162 206
e 162 221
e 163 165
e 163 185
e 163 227
e 163 243
e 164 190
e 164 205
e 164 217
e 165 178
e 165 180
e 165 187
e 165 203
e 165 210
e 165 216
e 165 223
e 165 229
e 165 246
e 166 194
e 167 185
e 167 210
e 167 230
e 168 169
e 168 219
e 168 228
e 169 173
e 169 220
e 170 173
e 170 214
e 170 215
e 170 223
e 171 173
e 171 195
e 171 230
e 172 183
e 172 192
e 172 196
e 172 201
e 172 226
e 173 203
e 173 245
e 174 209
e 174 223
e 174 226
e 175 213
e 176 177
e 176 197
e 177 210
e 177 233
e 177 235
e 178 182
e 178 200
e 178 212
e 178 220
e 178 245
e 180 181
e 180 188
e 180 205
e 180 231
e 180 238
e 181 191
e 181 229
e 183 192
e 183 206
e 183 214
e 183 217
e 183 223
e 183 224
e 184 200
e 184 212
e 185 191
e 185 199
e 185 213
e 185 214
e 185 228
e 186 194
e 186 217
e 186 226
e 187 209
e 187 220
e 187 226
e 188 213
e 189 204
e 189 205
e 189 217
e 190 215
e 191 209
e 191 236
e 192 211
e 192 234
e 192 245
e 193 222
e 193 239
e 194 224
e 194 240
e 194 244
e 195 196
e 195 208
e 195 223
e 195 226
e 196 201
e 197 227
e 198 199
e 198 240
e 199 244
e 200 205
e 201 222
e 202 212
e 202 240
e 203 236
e 205 244
e 206 208
e 206 224
e 208 215
e 209 219
e 210 214
e 210 239
e 210 240
e 211 236
e 211 244
e 211 245
e 213 215
e 213 233
e 214 243
e 214 244
e 216 219
e 217 224
e 217 236
e 217 242
e 218 234
e 218 241
e 219 221
e 219 227
e 220 223
e 220 233
e 220 241
e 221 227
e 221 231
e 221 246
e 223 230
e 223 233
e 223 237
e 225 228
e 225 239
e 226 231
e 226 232
e 227 243
e 228 245
e 239 240
e 240 242
e 241 243
